(set-info :Origin "This instance was generated by: BanditFuzz-- an RL fuzzer for SMT solvers" )
(set-info :Author "Joe Scott, Fed Mora, Vijay Ganesh" )
(set-info :Contact "Joe Scott, joseph.scott@uwaterloo.ca")
(set-logic QF_BV)
(declare-const bool_0 Bool)
(declare-const bool_1 Bool)
(declare-const bool_2 Bool)
(declare-const bool_3 Bool)
(declare-const bool_4 Bool)
(declare-const bv_0 (_ BitVec 32))
(declare-const bv_1 (_ BitVec 32))
(declare-const bv_2 (_ BitVec 32))
(declare-const bv_3 (_ BitVec 32))
(declare-const bv_4 (_ BitVec 32))
(assert (bvugt (bvor (bvsub #x13874db0  #x5ad85ee4 ) (bvmul bv_2 bv_1)) (bvxnor (bvshl #xdcf80d42  #x746348d6 ) (bvurem #x115feedf  bv_4))))
(assert (and (bvuge (bvnor #x08d434db  bv_3) (bvxor #x30cc6289  bv_0)) (not (bvslt bv_1 #x6126e3b9 ))))
(assert (and (not (not true)) (bvsge (bvsmod bv_4 #x95e89c5b ) (bvsub bv_3 bv_0))))
(assert (not (and (bvugt bv_2 bv_4) (bvslt bv_4 #xe70b3a7e ))))
(assert (or (bvsgt (bvlshr bv_0 #xfd83fb66 ) (bvshl bv_4 bv_1)) (bvsgt (bvlshr #xc3de7768  bv_3) (bvsdiv #x4b6b79b3  #xb04d7e38 ))))
(check-sat)
(exit)
